Te Mo
 1.0000000000000000
    21.4303237963853235    0.0000000000000000    0.0000000000000000
    10.7151619178613675   18.5592048287839333    0.0000000000000000
     0.0000000000000000    0.0000000000000000   50.0000000000000000
 Te  Mo 
 296 148
Cartesian
 10.1292000000000009 13.2318999999999996 12.6594999999999995
 13.0313999999999997 15.2334999999999994 12.6783000000000001
 15.9253000000000000 17.2158000000000015 12.6768000000000001
  7.5086800000000000  7.6924999999999999 12.6205999999999996
 10.4176000000000002  9.7161899999999992 12.6205999999999996
 13.3255999999999997 11.7318999999999996 12.6481999999999992
 16.2247999999999983 13.7256000000000000 12.6770999999999994
 19.1192999999999991 15.7043999999999997 12.6797000000000004
 22.0209000000000010 17.6985999999999990 12.6598000000000006
  2.0199099999999999  0.1644570000000000 12.6866000000000003
  4.9065399999999997  2.1562299999999999 12.6594999999999995
  7.8070500000000003  4.1638200000000003 12.6205999999999996
 10.7151999999999994  6.1863999999999999 12.6035000000000004
 13.6227000000000000  8.2102500000000003 12.6205999999999996
 16.5228000000000002 10.2213999999999992 12.6598000000000006
 19.4111000000000011 12.2132000000000005 12.6890999999999998
 22.3017000000000003 14.2012000000000000 12.6890999999999998
 25.2046999999999990 16.2044999999999995 12.6770999999999994
 28.1071999999999989 18.2161000000000008 12.6783000000000001
  8.1072900000000008  0.6448150000000000 12.6483000000000008
 11.0140999999999991  2.6564600000000000 12.6205999999999996
 13.9207999999999998  4.6791999999999998 12.6205999999999996
 16.8183000000000007  6.6987100000000002 12.6483000000000008
 19.7006000000000014  8.7055799999999994 12.6797000000000004
 22.5780999999999992 10.7039000000000009 12.6890999999999998
 25.4710999999999999 12.7083999999999993 12.6797000000000004
 28.3769999999999989 14.7188999999999997 12.6768000000000001
  9.8476300000000005 16.7276999999999987 12.6866000000000003
 14.2125000000000004  1.1529499999999999 12.6481999999999992
 17.1097000000000001  3.1710699999999998 12.6594999999999995
 19.9887000000000015  5.1837999999999997 12.6768000000000001
 22.8614999999999995  7.1882700000000002 12.6770999999999994
 25.7472999999999992  9.1984499999999993 12.6598000000000006
  7.2199400000000002 11.2157000000000000 12.6483000000000008
 20.2778999999999989  1.6670700000000001 12.6866000000000003
 23.1523000000000003  3.6687699999999999 12.6783000000000001
  4.6074099999999998  5.6743699999999997 12.6481999999999992
 12.1624999999999996 13.3824000000000005  5.8014099999999997
 15.0585000000000004 15.3818000000000001  5.8058600000000000
 17.9528999999999996 17.3813999999999993  5.8032800000000000
  9.5534700000000008  7.8620700000000001  5.7878200000000000
 12.4548000000000005  9.8716299999999997  5.7923799999999996
 15.3524999999999991 11.8754000000000008  5.8017000000000003
 18.2460999999999984 13.8757000000000001  5.8071599999999997
 21.1402000000000001 15.8781999999999996  5.8055500000000002
 24.0383999999999993 17.8850000000000016  5.8017000000000003
  4.0506399999999996  0.3295610000000000  5.8046199999999999
  6.9453100000000001  2.3330799999999998  5.7959300000000002
  9.8448399999999996  4.3425200000000004  5.7878200000000000
 12.7471999999999994  6.3546199999999997  5.7878200000000000
 15.6463999999999999  8.3639100000000006  5.7961900000000002
 18.5396000000000001 10.3689000000000000  5.8055500000000002
 21.4302999999999990 12.3727999999999998  5.8089800000000000
 24.3240000000000016 14.3789999999999996  5.8071599999999997
 27.2222000000000008 16.3865000000000016  5.8058600000000000
 30.1202000000000005 18.3924999999999983  5.8072200000000000
 10.1353000000000009  0.8270750000000000  5.7961900000000002
 13.0367999999999995  2.8371900000000001  5.7923799999999996
 15.9372000000000007  4.8482700000000003  5.7959300000000002
 18.8314999999999984  6.8569300000000002  5.8032800000000000
 21.7209000000000003  8.8637099999999993  5.8071599999999997
 24.6111000000000004 10.8713999999999995  5.8055500000000002
 27.5065999999999988 12.8801000000000005  5.8032800000000000
  8.9752500000000008 14.8864999999999998  5.8046199999999999
 11.8721999999999994 16.8886000000000003  5.8072200000000000
 16.2234000000000016  1.3349700000000000  5.8014099999999997
 19.1195999999999984  3.3431799999999998  5.8046199999999999
 22.0104000000000006  5.3500899999999998  5.8058600000000000
 24.8999999999999986  7.3579999999999997  5.8017000000000003
  6.3637699999999997  9.3682200000000009  5.7961900000000002
  9.2630199999999991 11.3778000000000006  5.7959300000000002
 22.2986000000000004  1.8372999999999999  5.8072200000000000
  3.7595700000000001  3.8418399999999999  5.8014099999999997
  6.6538199999999996  5.8503900000000000  5.7923799999999996
 12.1618999999999993 13.3764000000000003  9.4260400000000004
 15.0586000000000002 15.3825000000000003  9.4322099999999995
 17.9555000000000007 17.3884000000000007  9.4284499999999998
  9.5562299999999993  7.8580500000000004  9.4066700000000001
 12.4514999999999993  9.8652800000000003  9.4130699999999994
 15.3476999999999997 11.8716000000000008  9.4262999999999995
 18.2444999999999986 13.8777000000000008  9.4340200000000003
 21.1412000000000013 15.8841999999999999  9.4317299999999999
 24.0376000000000012 17.8911000000000016  9.4262999999999995
  4.0545700000000000  0.3337970000000000  9.4306699999999992
  6.9509699999999999  2.3397700000000001  9.4182500000000005
  9.8469300000000004  4.3469199999999999  9.4066700000000001
 12.7423000000000002  6.3542399999999999  9.4066700000000001
 15.6378000000000004  8.3607499999999995  9.4185199999999991
 18.5339999999999989 10.3666999999999998  9.4317299999999999
 21.4302999999999990 12.3727999999999998  9.4365500000000004
 24.3264999999999993 14.3794000000000004  9.4340200000000003
 27.2226999999999997 16.3859999999999992  9.4322099999999995
 30.1186000000000007 18.3922999999999988  9.4342600000000001
 10.1369000000000007  0.8360649999999999  9.4185199999999991
 13.0329999999999995  2.8432400000000002  9.4130699999999994
 15.9284999999999997  4.8498299999999999  9.4182500000000005
 18.8241000000000014  6.8557199999999998  9.4284499999999998
 21.7199999999999989  8.8613499999999998  9.4340200000000003
 24.6158000000000001 10.8674999999999997  9.4317299999999999
 27.5113999999999983 12.8742999999999999  9.4284499999999998
  8.9769500000000004 14.8809000000000005  9.4306699999999992
 11.8732000000000006 16.8872999999999998  9.4342600000000001
 16.2184999999999988  1.3384799999999999  9.4260400000000004
 19.1140000000000008  3.3444600000000002  9.4306699999999992
 22.0096999999999987  5.3498799999999997  9.4322099999999995
 24.9056999999999995  7.3556600000000003  9.4262999999999995
  6.3707799999999999  9.3623899999999995  9.4185199999999991
  9.2659699999999994 11.3696000000000002  9.4182500000000005
 22.2991999999999990  1.8388400000000000  9.4342600000000001
  3.7650600000000001  3.8443200000000002  9.4260400000000004
  6.6609800000000003  5.8506799999999997  9.4130699999999994
 10.1242999999999999 13.1959999999999997 16.2781999999999982
 13.0249000000000006 15.2080000000000002 16.3075000000000010
 15.9360999999999997 17.2178000000000004 16.3060000000000009
  7.5357099999999999  7.6789300000000003 16.2316000000000003
 10.4167000000000005  9.6859699999999993 16.2316000000000003
 13.3055000000000003 11.6958000000000002 16.2643999999999984
 16.2079999999999984 13.7057000000000002 16.3062000000000005
 19.1179999999999986 15.7177000000000007 16.3083999999999989
 22.0170999999999992 17.7360000000000007 16.2783000000000015
  2.0331700000000001  0.1641500000000000 16.3202999999999996
  4.9401299999999999  2.1699299999999999 16.2781999999999982
  7.8336899999999998  4.1781199999999998 16.2316000000000003
 10.7151999999999994  6.1863999999999999 16.2125999999999983
 13.5975000000000001  8.1936300000000006 16.2316000000000003
 16.4923000000000002 10.1994000000000007 16.2783000000000015
 19.3978999999999999 12.2049000000000003 16.3220999999999989
 22.3011000000000017 14.2169000000000008 16.3220999999999989
 25.1957999999999984 16.2289999999999992 16.3062000000000005
 28.0884000000000000 18.2345000000000006 16.3075000000000010
  8.1236999999999995  0.6729510000000000 16.2645000000000017
 11.0122999999999998  2.6866500000000002 16.2316000000000003
 13.8950999999999993  4.6951099999999997 16.2316000000000003
 16.7856999999999985  6.6988500000000002 16.2645000000000017
 19.6896999999999984  8.6978000000000009 16.3083999999999989
 22.5919999999999987 10.6966000000000001 16.3220999999999989
 25.4832999999999998 12.7028999999999996 16.3083999999999989
 28.3734000000000002 14.7083999999999993 16.3060000000000009
  9.8407300000000006 16.7163000000000004 16.3202999999999996
 14.1912000000000003  1.1883800000000000 16.2643999999999984
 17.0809999999999995  3.1933099999999999 16.2781999999999982
 19.9815000000000005  5.1921499999999998 16.3060000000000009
 22.8872000000000000  7.1836900000000004 16.3062000000000005
 25.7816000000000010  9.1830499999999997 16.2783000000000015
  7.2361000000000004 11.1874000000000002 16.2645000000000017
 20.2715999999999994  1.6787099999999999 16.3202999999999996
 23.1776000000000018  3.6759100000000000 16.3075000000000010
  4.6487200000000000  5.6750600000000002 16.2643999999999984
 12.4534000000000002 14.8809000000000005 26.6985999999999990
 15.6379999999999999 16.3859999999999992 26.6970999999999989
 18.8230000000000004 17.8911000000000016 26.7029999999999994
  8.9788099999999993  9.8652800000000003 26.7163000000000004
 12.1644000000000005 11.3696000000000002 26.7110999999999983
 15.3492999999999995 12.8742999999999999 26.7009000000000007
 18.5340999999999987 14.3794000000000004 26.6952999999999996
 21.7195000000000000 15.8841999999999999 26.6976000000000013
 24.9051000000000009 17.3884000000000007 26.7009000000000007
  5.5017800000000001  4.8498299999999999 26.7110999999999983
  8.6880000000000006  6.3542399999999999 26.7226999999999997
 11.8741000000000003  7.8580500000000004 26.7226999999999997
 15.0594999999999999  9.3623899999999995 26.7107999999999990
 18.2448000000000015 10.8674999999999997 26.6976000000000013
 21.4302999999999990 12.3727999999999998 26.6927999999999983
 24.6161999999999992 13.8777000000000008 26.6952999999999996
 27.8019999999999996 15.3825000000000003 26.6970999999999989
 30.9875000000000007 16.8872999999999998 26.6951000000000001
 12.7421000000000006 18.3922999999999988 26.6951000000000001
  5.2118099999999998  1.3384799999999999 26.7032999999999987
  8.3973300000000002  2.8432400000000002 26.7163000000000004
 11.5833999999999993  4.3469199999999999 26.7226999999999997
 14.7692999999999994  5.8506799999999997 26.7163000000000004
 17.9549999999999983  7.3556600000000003 26.7029999999999994
 21.1406999999999989  8.8613499999999998 26.6952999999999996
 24.3266999999999989 10.3666999999999998 26.6976000000000013
 27.5130000000000017 11.8716000000000008 26.7029999999999994
  9.2684099999999994 13.3764000000000003 26.7032999999999987
 11.2934999999999999  0.8360649999999999 26.7107999999999990
 14.4794000000000000  2.3397700000000001 26.7110999999999983
 17.6652999999999984  3.8443200000000002 26.7032999999999987
 20.8509999999999991  5.3498799999999997 26.6970999999999989
 24.0366000000000000  6.8557199999999998 26.7009000000000007
  5.7924800000000003  8.3607499999999995 26.7107999999999990
 17.3758000000000017  0.3337970000000000 26.6985999999999990
 20.5613999999999990  1.8388400000000000 26.6951000000000001
  2.3163600000000000  3.3444600000000002 26.6985999999999990
 14.4872999999999994 14.7083999999999993 19.8232999999999997
 17.6648999999999994 16.2289999999999992 19.8231999999999999
 20.8435999999999986 17.7360000000000007 19.8509999999999991
 11.0136000000000003  9.6859699999999993 19.8977000000000004
 14.1942000000000004 11.1874000000000002 19.8647999999999989
 17.3774000000000015 12.7028999999999996 19.8209000000000017
 20.5594999999999999 14.2169000000000008 19.8073000000000015
 23.7426999999999992 15.7177000000000007 19.8209000000000017
 26.9244999999999983 17.2178000000000004 19.8232999999999997
  7.5351999999999997  4.6951099999999997 19.8977000000000004
 10.7151999999999994  6.1863999999999999 19.9167999999999985
 13.8946000000000005  7.6789300000000003 19.8978000000000002
 17.0791000000000004  9.1830499999999997 19.8509999999999991
 20.2686999999999991 10.6966000000000001 19.8073000000000015
 23.4627000000000017 12.2049000000000003 19.8073000000000015
 26.6526999999999994 13.7057000000000002 19.8231999999999999
 29.8356999999999992 15.2080000000000002 19.8217999999999996
 11.5896000000000008 16.7163000000000004 19.8090000000000011
 14.7721999999999998 18.2345000000000006 19.8217999999999996
  7.2390999999999996  1.1883800000000000 19.8648999999999987
 10.4179999999999993  2.6866500000000002 19.8978000000000002
 13.5966000000000005  4.1781199999999998 19.8977000000000004
 16.7816000000000010  5.6750600000000002 19.8648999999999987
 19.9734000000000016  7.1836900000000004 19.8231999999999999
 23.1708999999999996  8.6978000000000009 19.8209000000000017
 26.3684000000000012 10.1994000000000007 19.8509999999999991
  8.1247799999999994 11.6958000000000002 19.8648999999999987
 11.3059999999999992 13.1959999999999997 19.8510999999999989
 13.3065999999999995  0.6729510000000000 19.8647999999999989
 16.4902000000000015  2.1699299999999999 19.8510999999999989
 19.6829999999999998  3.6759100000000000 19.8217999999999996
 22.8791000000000011  5.1921499999999998 19.8232999999999997
  4.6446399999999999  6.6988599999999998 19.8647999999999989
  7.8328699999999998  8.1936300000000006 19.8978000000000002
 19.3970999999999982  0.1641500000000000 19.8090000000000011
  1.1587400000000001  1.6787099999999999 19.8090000000000011
  4.3492800000000003  3.1933099999999999 19.8510999999999989
 14.4837000000000007 14.7188999999999997 23.4526000000000003
 17.6559999999999988 16.2044999999999995 23.4523000000000010
 20.8397000000000006 17.6985999999999990 23.4695000000000000
 11.0127000000000006  9.7161899999999992 23.5087000000000010
 14.2103999999999999 11.2157000000000000 23.4810000000000016
 17.3896000000000015 12.7083999999999993 23.4497000000000000
 20.5589000000000013 14.2012000000000000 23.4402000000000008
 23.7413999999999987 15.7043999999999997 23.4497000000000000
 26.9354000000000013 17.2158000000000015 23.4526000000000003
  7.5095000000000001  4.6791999999999998 23.5087000000000010
 10.7151999999999994  6.1863999999999999 23.5258000000000003
 13.9215999999999998  7.6924999999999999 23.5087000000000010
 17.1133999999999986  9.1984499999999993 23.4695000000000000
 20.2824999999999989 10.7039000000000009 23.4402000000000008
 23.4495000000000005 12.2132000000000005 23.4402000000000008
 26.6357999999999997 13.7256000000000000 23.4523000000000010
 29.8292000000000002 15.2334999999999994 23.4510000000000005
 11.5827000000000009 16.7276999999999987 23.4426999999999985
 14.7533999999999992 18.2161000000000008 23.4510000000000005
  7.2178500000000003  1.1529499999999999 23.4811000000000014
 10.4161999999999999  2.6564600000000000 23.5087000000000010
 13.6233000000000004  4.1638200000000003 23.5087000000000010
 16.8229000000000006  5.6743699999999997 23.4811000000000014
 19.9991999999999983  7.1882700000000002 23.4523000000000010
 23.1600000000000001  8.7055799999999994 23.4497000000000000
 26.3379000000000012 10.2213999999999992 23.4695000000000000
  8.1047200000000004 11.7318999999999996 23.4811000000000014
 11.3010999999999999 13.2318999999999996 23.4697999999999993
 13.3230000000000004  0.6448150000000000 23.4810000000000016
 16.5238000000000014  2.1562299999999999 23.4697999999999993
 19.7083000000000013  3.6687699999999999 23.4510000000000005
 22.8719000000000001  5.1837999999999997 23.4526000000000003
  4.6120700000000001  6.6987100000000002 23.4810000000000016
  7.8075999999999999  8.2102500000000003 23.5087000000000010
 19.4103999999999992  0.1644570000000000 23.4426999999999985
  1.1523800000000000  1.6670700000000001 23.4426999999999985
  4.3206199999999999  3.1710699999999998 23.4697999999999993
 12.4550999999999998 14.8864999999999998 30.3247000000000000
 15.6385000000000005 16.3865000000000016 30.3234999999999992
 18.8221999999999987 17.8850000000000016 30.3276000000000003
  8.9754900000000006  9.8716299999999997 30.3369000000000000
 12.1672999999999991 11.3778000000000006 30.3334000000000010
 15.3539999999999992 12.8801000000000005 30.3260000000000005
 18.5366999999999997 14.3789999999999996 30.3221999999999987
 21.7205000000000013 15.8781999999999996 30.3237999999999985
 24.9078000000000017 17.3813999999999993 30.3260000000000005
  5.4931599999999996  4.8482700000000003 30.3334000000000010
  8.6831499999999995  6.3546199999999997 30.3414999999999999
 11.8768999999999991  7.8620700000000001 30.3414999999999999
 15.0665999999999993  9.3682200000000009 30.3331000000000017
 18.2495000000000012 10.8713999999999995 30.3237999999999985
 21.4302999999999990 12.3727999999999998 30.3202999999999996
 24.6145999999999994 13.8757000000000001 30.3221999999999987
 27.8021999999999991 15.3818000000000001 30.3234999999999992
 30.9884999999999984 16.8886000000000003 30.3220999999999989
 12.7405000000000008 18.3924999999999983 30.3220999999999989
  5.2069200000000002  1.3349700000000000 30.3278999999999996
  8.3934999999999995  2.8371900000000001 30.3369000000000000
 11.5854999999999997  4.3425200000000004 30.3414999999999999
 14.7765000000000004  5.8503900000000000 30.3369000000000000
 17.9605999999999995  7.3579999999999997 30.3276000000000003
 21.1397000000000013  8.8637099999999993 30.3221999999999987
 24.3210000000000015 10.3689000000000000 30.3237999999999985
 27.5080999999999989 11.8754000000000008 30.3276000000000003
  9.2678200000000004 13.3824000000000005 30.3278999999999996
 11.2949999999999999  0.8270750000000000 30.3331000000000017
 14.4849999999999994  2.3330799999999998 30.3334000000000010
 17.6707000000000001  3.8418399999999999 30.3278999999999996
 20.8503000000000007  5.3500899999999998 30.3234999999999992
 24.0291999999999994  6.8569300000000002 30.3260000000000005
  5.7839299999999998  8.3639100000000006 30.3331000000000017
 17.3796999999999997  0.3295610000000000 30.3247000000000000
 20.5620000000000012  1.8372999999999999 30.3220999999999989
  2.3107300000000000  3.3431799999999998 30.3247000000000000
 10.1349999999999998 13.2125000000000004  7.6122100000000001
 13.0318000000000005 15.2174999999999994  7.6180199999999996
 15.9271999999999991 17.2204000000000015  7.6176100000000000
  7.5258700000000003  7.6918499999999996  7.6002500000000000
 10.4244000000000003  9.7011000000000003  7.6001300000000001
 13.3224999999999998 11.7082999999999995  7.6091699999999998
 16.2185999999999986 13.7120999999999995  7.6181099999999997
 19.1141000000000005 15.7147000000000006  7.6186100000000003
 22.0107999999999997 17.7194000000000003  7.6128600000000004
  2.0261499999999999  0.1666980000000000  7.6201800000000004
  4.9204600000000003  2.1708699999999999  7.6122100000000001
  7.8167400000000002  4.1772099999999996  7.6001300000000001
 10.7151999999999994  6.1863999999999999  7.5941999999999998
 13.6135999999999999  8.1956900000000008  7.6002500000000000
 16.5097999999999985 10.2022999999999993  7.6128600000000004
 19.4042999999999992 12.2064000000000004  7.6213199999999999
 22.2991999999999990 14.2105999999999995  7.6213199999999999
 25.1960000000000015 16.2165999999999997  7.6181099999999997
 28.0930999999999997 18.2238000000000007  7.6180199999999996
  8.1081099999999999  0.6648080000000000  7.6090600000000004
 11.0061000000000000  2.6716700000000002  7.6002500000000000
 13.9044000000000008  4.6808899999999998  7.6001300000000001
 16.8004999999999995  6.6894299999999998  7.6090600000000004
 19.6942999999999984  8.6959300000000006  7.6186100000000003
 22.5874999999999986 10.7013999999999996  7.6213199999999999
 25.4826000000000015 12.7078000000000007  7.6186100000000003
 28.3799999999999990 14.7149000000000001  7.6176100000000000
  9.8464500000000008 16.7211999999999996  7.6201800000000004
 14.1936000000000000  1.1674700000000000  7.6091699999999998
 17.0900999999999996  3.1758099999999998  7.6122100000000001
 19.9837999999999987  5.1831500000000004  7.6176100000000000
 22.8763000000000005  7.1896899999999997  7.6181099999999997
 25.7702999999999989  9.1967999999999996  7.6128600000000004
  7.2368499999999996 11.2050000000000001  7.6090600000000004
 20.2728999999999999  1.6713499999999999  7.6201800000000004
 23.1660000000000004  3.6771400000000001  7.6180199999999996
  4.6294300000000002  5.6834499999999997  7.6091699999999998
 12.1559000000000008 13.3859999999999992 14.4733000000000001
 15.0556000000000001 15.3833000000000002 14.4961000000000002
 17.9570000000000007 17.3787999999999982 14.4826999999999995
  9.5513999999999992  7.8582200000000002 14.4113000000000007
 12.4472000000000005  9.8732399999999991 14.4299999999999997
 15.3459000000000003 11.8808000000000007 14.4725000000000001
 18.2441999999999993 13.8764000000000003 14.5023999999999997
 21.1445000000000007 15.8778000000000006 14.4932999999999996
 24.0463999999999984 17.8881000000000014 14.4725000000000001
  4.0517599999999998  0.3240630000000000 14.4916000000000000
  6.9513999999999996  2.3292199999999998 14.4467999999999996
  9.8492099999999994  4.3426499999999999 14.4113000000000007
 12.7448999999999995  6.3583400000000001 14.4113000000000007
 15.6404999999999994  8.3696599999999997 14.4466999999999999
 18.5379000000000005 10.3727999999999998 14.4932999999999996
 21.4302999999999990 12.3727999999999998 14.5131999999999994
 24.3256000000000014 14.3802000000000003 14.5023999999999997
 27.2249000000000017 16.3882000000000012 14.4961000000000002
 30.1228000000000016 18.3948000000000000 14.5055999999999994
 10.1433000000000000  0.8293270000000000 14.4466999999999999
 13.0419999999999998  2.8429799999999998 14.4299999999999997
 15.9375000000000000  4.8554800000000000 14.4467999999999996
 18.8316000000000017  6.8618300000000003 14.4826999999999995
 21.7211999999999996  8.8617299999999997 14.5023999999999997
 24.6086999999999989 10.8679000000000006 14.4932999999999996
 27.5023000000000017 12.8777000000000008 14.4826999999999995
  8.9699299999999997 14.8881999999999994 14.4916000000000000
 11.8689000000000000 16.8897000000000013 14.5055999999999994
 16.2298000000000009  1.3389400000000000 14.4733000000000001
 19.1237999999999992  3.3469000000000002 14.4916000000000000
 22.0105000000000004  5.3468600000000004 14.4961000000000002
 24.8985999999999983  7.3495699999999999 14.4725000000000001
  6.3617499999999998  9.3602200000000000 14.4466999999999999
  9.2566299999999995 11.3744999999999994 14.4467999999999996
 22.2992999999999988  1.8339099999999999 14.5055999999999994
  3.7598099999999999  3.8342999999999998 14.4733000000000001
  6.6562400000000004  5.8429900000000004 14.4299999999999997
 12.4603999999999999 14.8881999999999994 21.6377999999999986
 15.6357999999999997 16.3882000000000012 21.6331999999999987
 18.8141999999999996 17.8881000000000014 21.6568000000000005
  8.9831000000000003  9.8732399999999991 21.6993000000000009
 12.1737000000000002 11.3744999999999994 21.6825000000000010
 15.3582999999999998 12.8777000000000008 21.6465999999999994
 18.5350999999999999 14.3802000000000003 21.6268999999999991
 21.7162000000000006 15.8778000000000006 21.6359999999999992
 24.9036000000000008 17.3787999999999982 21.6465999999999994
  5.4928699999999999  4.8554800000000000 21.6825000000000010
  8.6854399999999998  6.3583400000000001 21.7180000000000000
 11.8788999999999998  7.8582200000000002 21.7180000000000000
 15.0686000000000000  9.3602200000000000 21.6826000000000008
 18.2519999999999989 10.8679000000000006 21.6359999999999992
 21.4302999999999990 12.3727999999999998 21.6160999999999994
 24.6163999999999987 13.8764000000000003 21.6268999999999991
 27.8050999999999995 15.3833000000000002 21.6331999999999987
 30.9917000000000016 16.8897000000000013 21.6236999999999995
 12.7378999999999998 18.3948000000000000 21.6236999999999995
  5.2005100000000004  1.3389400000000000 21.6559999999999988
  8.3882999999999992  2.8429799999999998 21.6993000000000009
 11.5810999999999993  4.3426499999999999 21.7180000000000000
 14.7741000000000007  5.8429900000000004 21.6993000000000009
 17.9619999999999997  7.3495699999999999 21.6568000000000005
 21.1393999999999984  8.8617299999999997 21.6268999999999991
 24.3228000000000009 10.3727999999999998 21.6359999999999992
 27.5147000000000013 11.8808000000000007 21.6568000000000005
  9.2744599999999995 13.3859999999999992 21.6559999999999988
 11.2871000000000006  0.8293270000000000 21.6826000000000008
 14.4788999999999994  2.3292199999999998 21.6825000000000010
 17.6705000000000005  3.8342999999999998 21.6559999999999988
 20.8501000000000012  5.3468600000000004 21.6331999999999987
 24.0289999999999999  6.8618300000000003 21.6465999999999994
  5.7898500000000004  8.3696599999999997 21.6826000000000008
 17.3785999999999987  0.3240630000000000 21.6377999999999986
 20.5613999999999990  1.8339099999999999 21.6236999999999995
  2.3065300000000000  3.3469000000000002 21.6377999999999986
 14.4806000000000008 14.7149000000000001 28.5117000000000012
 17.6646000000000001 16.2165999999999997 28.5111999999999988
 20.8497999999999983 17.7194000000000003 28.5165000000000006
 11.0060000000000002  9.7011000000000003 28.5291999999999994
 14.1935000000000002 11.2050000000000001 28.5202999999999989
 17.3780000000000001 12.7078000000000007 28.5106999999999999
 20.5613999999999990 14.2105999999999995 28.5079999999999991
 23.7466000000000008 15.7147000000000006 28.5106999999999999
 26.9334999999999987 17.2204000000000015 28.5117000000000012
  7.5259400000000003  4.6808899999999998 28.5291999999999994
 10.7151999999999994  6.1863999999999999 28.5350999999999999
 13.9045000000000005  7.6918499999999996 28.5290999999999997
 17.0902999999999992  9.1967999999999996 28.5165000000000006
 20.2731999999999992 10.7013999999999996 28.5079999999999991
 23.4563999999999986 12.2064000000000004 28.5079999999999991
 26.6419999999999995 13.7120999999999995 28.5111999999999988
 29.8288000000000011 15.2174999999999994 28.5112999999999985
 11.5838999999999999 16.7211999999999996 28.5091000000000001
 14.7675000000000001 18.2238000000000007 28.5112999999999985
  7.2367299999999997  1.1674800000000001 28.5201999999999991
 10.4243000000000006  2.6716700000000002 28.5290999999999997
 13.6135999999999999  4.1772099999999996 28.5291999999999994
 16.8008999999999986  5.6834499999999997 28.5201999999999991
 19.9843000000000011  7.1896899999999997 28.5111999999999988
 23.1662999999999997  8.6959300000000006 28.5106999999999999
 26.3507999999999996 10.2022999999999993 28.5165000000000006
  8.1078600000000005 11.7082999999999995 28.5201999999999991
 11.2954000000000008 13.2125000000000004 28.5170999999999992
 13.3222000000000005  0.6648080000000000 28.5202999999999989
 16.5098999999999982  2.1708699999999999 28.5170999999999992
 19.6946000000000012  3.6771400000000001 28.5112999999999985
 22.8768999999999991  5.1831500000000004 28.5117000000000012
  4.6298000000000004  6.6894299999999998 28.5202999999999989
  7.8167600000000004  8.1956900000000008 28.5290999999999997
 19.4041999999999994  0.1666980000000000 28.5091000000000001
  1.1574400000000000  1.6713499999999999 28.5091000000000001
  4.3402599999999998  3.1758099999999998 28.5170999999999992
